proyfinal/src/viki/013/experimentInOfficeAgust.take6.output/6d72354a-84c2-4523-a2cc-09a897287668.als.dat
{'cnf.clauses': '118081',
 'cnf.totvars': '69608',
 'conflict literals': '59',
 'conflicts': '18',
 'decisions': '2431',
 'memused.mb': '15.68',
 'outcome': 'UNSAT',
 'propagations': '19532',
 'restarts': '1',
 'solver.msecs': 30,
 'task.msecs': 80}
