proyfinal/src/viki/013/experimentInOfficeAgust.take6.output/6d72354a-84c2-4523-a2cc-09a897287668.als.out
Reading from standard input... Use '--help' for help.
============================[ Problem Statistics ]=============================
|                                                                             |
|  Number of variables:         69608                                         |
|  Number of clauses:          118081                                         |
|  Parse time:                   0.02 s                                       |
|                                                                             |
============================[ Search Statistics ]==============================
| Conflicts |          ORIGINAL         |          LEARNT          | Progress |
|           |    Vars  Clauses Literals |    Limit  Clauses Lit/Cl |          |
===============================================================================
===============================================================================
restarts              : 1
conflicts             : 18             (598 /sec)
decisions             : 2431           (0.00 % random) (80804 /sec)
propagations          : 19532          (649227 /sec)
conflict literals     : 59             (0.00 % deleted)
Memory used           : 15.68 MB
CPU time              : 0.030085 s

UNSATISFIABLE
